50
3383

312 213
93 585
681 779
224 918
404 318
291 565
644 557
500 6
488 879
78 927
367 696
84 985
599 63
184 421
871 54
500 665
168 539
832 278
235 7
408 616
83 39
303 7
487 797
427 981
587 677
92 243
7 247
144 46
335 747
917 457
589 403
35 863
534 837
206 550
908 580
289 293
159 949
32 695
187 571
96 579
935 572
732 549
495 42
379 896
306 441
115 264
501 131
362 465
144 490
259 103
